(set-logic ALL )
(set-option :produce-models true )
(set-option :incremental true )
(set-option :fmf-bound true )
(declare-fun x ()
Int )
(declare-fun y ()
Int )
(declare-fun f (Int Int )
Int )
(assert (= (f x y )
10 )
)
(check-sat )
(get-model )
(declare-fun z ()
Int )
(check-sat )
(get-model )
(exit )
